CMPL model generation - running

CMPL version: 1.11.0
Authors: Thomas Schleiff, Mike Steglich
Distributed under the GPLv3 

create model instance ...
write model instance ...
CMPL model generation - finished

Solver - running


Welcome to IBM(R) ILOG(R) CPLEX(R) Interactive Optimizer 12.7.1.0
  with Simplex, Mixed Integer & Barrier Optimizers
5725-A06 5725-A29 5724-Y48 5724-Y49 5724-Y54 5724-Y55 5655-Y21
Copyright IBM Corp. 1988, 2017.  All Rights Reserved.

Type 'help' for a list of available commands.
Type 'help' followed by a command name for more
information on commands.

CPLEX> Specified objective sense: MINIMIZE
Selected objective  name:  line[1]
Selected RHS        name:  RHS
Selected bound      name:  BOUND
Problem '/tmp/cmpl.T24485.mps' read.
Read time = 0.06 sec. (10.13 ticks)
CPLEX> CPXPARAM_Read_APIEncoding                        "UTF-8"
Tried aggregator 3 times.
MIP Presolve eliminated 23880 rows and 37336 columns.
MIP Presolve modified 425 coefficients.
Aggregator did 865 substitutions.
Reduced MIP has 3177 rows, 4254 columns, and 12578 nonzeros.
Reduced MIP has 4044 binaries, 0 generals, 0 SOSs, and 0 indicators.
Presolve time = 0.06 sec. (50.55 ticks)
Found incumbent of value 2297.775082 after 0.15 sec. (109.05 ticks)
Probing fixed 24 vars, tightened 0 bounds.
Probing time = 0.01 sec. (5.56 ticks)
Tried aggregator 1 time.
MIP Presolve eliminated 0 rows and 24 columns.
MIP Presolve modified 143 coefficients.
Reduced MIP has 3177 rows, 4230 columns, and 12530 nonzeros.
Reduced MIP has 4230 binaries, 0 generals, 0 SOSs, and 0 indicators.
Presolve time = 0.01 sec. (10.68 ticks)
Probing time = 0.01 sec. (2.86 ticks)
Clique table members: 7703.
MIP emphasis: balance optimality and feasibility.
MIP search method: dynamic search.
Parallel mode: none, using 1 thread.
Root relaxation solution time = 0.01 sec. (8.07 ticks)

        Nodes                                         Cuts/
   Node  Left     Objective  IInf  Best Integer    Best Bound    ItCnt     Gap

*     0+    0                         2297.7751      -12.0409           100.52%
      0     0      433.0517     3     2297.7751      433.0517      327   81.15%
*     0+    0                          435.0567      433.0517             0.46%
*     0+    0                          433.1203      433.0517             0.02%
*     0     0      integral     0      433.0859       Cuts: 6      333    0.00%
      0     0        cutoff            433.0859      433.0859      333    0.00%
Elapsed time = 0.23 sec. (163.96 ticks, tree = 0.01 MB, solutions = 4)

Cover cuts applied:  4
Gomory fractional cuts applied:  2

Root node processing (before b&c):
  Real time             =    0.23 sec. (166.07 ticks)
Sequential b&c:
  Real time             =    0.00 sec. (0.00 ticks)
                          ------------
Total (root+branch&cut) =    0.23 sec. (166.07 ticks)

Solution pool: 4 solutions saved.

MIP - Integer optimal solution:  Objective =  4.3308593800e+02
Solution time =    0.23 sec.  Iterations = 333  Nodes = 0
Deterministic time = 166.19 ticks  (719.08 ticks/sec)

CPLEX> Incumbent solution written to file '/tmp/cmpl.T24485.gsol'.
CPLEX> 
CMPL: Time used for model generation: 1 seconds
CMPL: Time used for solving the model: 1 seconds


Solution written to ASCII file: results/output_generated_conf_0.7/2016-12-05-5/fair-nonlinear.sol

Solver - finished
